NAME : ClusterId_194 
COMMENT : (Gillet and Johnson) 
TYPE : CVRP 
DIMENSION : 27 
EDGE_WEIGHT_TYPE : EUC_2D 
CAPACITY : 80 
NODE_COORD_SECTION 
194 6350 15783 
132 1245 -8669 
112 5633 -8955 
131 1389 -8268 
128 1243 -8229 
111 3958 -8010 
110 3368 -7554 
101 4703 -7118 
147 1975 -6565 
139 8431 -6442 
135 8238 -5688 
12 317 5883 
45 1756 5830 
63 827 6616 
67 2408 6130 
76 356 7243 
86 1787 6461 
94 4216 6389 
47 691 7927 
49 8490 6413 
74 9638 6732 
53 2293 7161 
2 9246 6847 
98 2927 7654 
48 9308 7933 
80 6612 7459 
192 6107 14740 
DEMAND_SECTION 
194 550
132 32
112 13
131 34
128 13
111 17
110 21
101 4
147 22
139 27
135 37
12 13
45 17
63 19
67 29
76 22
86 35
94 23
47 22
49 20
74 16
53 16
2 12
98 22
48 22
80 26
192 13
DEPOT_SECTION 
194
 -1
EOF